
c turning on binary mode checking

c parsing input formula with 3656 variables and 23828 clauses

c finished parsing, read 91660 bytes from proof file

c detected empty clause; start verification via backward checking

c 47 of 23828 clauses in core                            

c 13 of 1934 lemmas in core using 62 resolution steps

c 0 RAT lemmas in core; 0 redundant literals in core lemmas

s VERIFIED

c verification time: 0.059 seconds
